f:28505496
solution:
172 44 81 140 82 86 191 31 28 106 3 22 187 73 103 130 171 166 146 20 96 199 116 40 107 35 16 95 161 185 17 56 165 74 91 160 194 10 110 54 43 78 49 123 119 13 66 29 117 139 33 47 72 21 32 98 193 149 164 83 87 157 76 34 181 92 121 24 126 57 147 183 118 88 12 80 143 19 5 42 101 11 137 154 188 25 170 192 39 151 94 134 176 71 2 162 184 132 68 18 113 27 179 0 189 127 135 59 182 112 144 69 55 169 37 90 41 167 196 155 136 114 62 61 89 60 145 159 93 36 6 197 124 158 198 178 168 63 50 67 142 77 173 65 23 153 26 111 186 120 133 38 99 100 15 152 115 48 148 75 102 128 9 125 108 104 14 79 131 1 163 175 45 150 97 138 64 141 58 84 180 30 70 7 53 156 105 122 195 174 4 109 177 85 46 129 190 8 51 52 
